# Solution for model r5_t18_m8_9
# Finished Task: 12 / 18
# Makespan: 585.0, Total Distance: 684.0, Total Time: 0.0251
# R O S F
0 0 10 0.0 0.0
1 1 17 0.0 0.0
2 2 6 0.0 0.0
3 3 20 0.0 0.0
4 4 9 0.0 0.0
5 -1 -1 -1.0 -1.0
6 2 18 411.0 435.0
7 -1 -1 -1.0 -1.0
8 -1 -1 -1.0 -1.0
9 4 -1 524.0 563.0
10 0 12 352.0 378.0
11 0 -1 538.0 558.0
12 0 11 435.0 468.0
13 1 19 492.0 524.0
14 -1 -1 -1.0 -1.0
15 -1 -1 -1.0 -1.0
16 -1 -1 -1.0 -1.0
17 1 13 378.0 411.0
18 2 22 490.0 524.0
19 1 -1 553.0 578.0
20 3 21 468.0 492.0
21 3 -1 527.0 565.0
22 2 -1 558.0 585.0
